NAME : instances/clustered-mixed-tsp/instance-82.tsp
COMMENT : No Comment
TYPE : TSP
DIMENSION: 41
EDGE_WEIGHT_TYPE : EUC_2D
NODE_COORD_SECTION
1 1212 453 
2 953 383 
3 1380 485 
4 1396 450 
5 575 656 
6 787 1156 
7 841 1220 
8 965 1283 
9 1258 488 
10 1389 876 
11 1670 1601 
12 1610 332 
13 1663 1114 
14 1781 670 
15 560 1173 
16 952 1346 
17 1809 950 
18 1051 901 
19 1109 1510 
20 1503 1684 
21 739 1339 
22 894 1030 
23 874 456 
24 1105 294 
25 1878 1462 
26 805 1400 
27 1303 489 
28 828 1251 
29 983 1411 
30 911 1318 
31 531 1655 
32 1776 1362 
33 1315 440 
34 1184 1430 
35 1701 1412 
36 1597 1671 
37 937 1422 
38 1022 794 
39 1022 939 
40 1905 821 
41 959 990 
EOF
